solution status: gap limit reached
objective value:                          45602.61341
y#4                                                 1 	(obj:5700)
y#11                                                1 	(obj:5700)
y#13                                                1 	(obj:5700)
y#18                                                1 	(obj:5700)
y#22                                                1 	(obj:5700)
y#23                                                1 	(obj:5700)
y#26                                                1 	(obj:5700)
y#30                                                1 	(obj:5700)
x#1#4                                               1 	(obj:0.04199)
x#2#30                                              1 	(obj:0.03978)
x#3#4                                               1 	(obj:0.01836)
x#4#22                                              1 	(obj:0.0238)
x#5#26                                              1 	(obj:0.03315)
x#6#26                                              1 	(obj:0.01411)
x#7#18                                              1 	(obj:0.00901)
x#8#11                                              1 	(obj:0.01972)
x#9#18                                              1 	(obj:0.00918)
x#10#18                                             1 	(obj:0.02159)
x#11#22                                             1 	(obj:0.02788)
x#12#11                                             1 	(obj:0.01224)
x#13#4                                              1 	(obj:0.03519)
x#14#13                                             1 	(obj:0.02295)
x#15#13                                             1 	(obj:0.0289)
x#16#23                                             1 	(obj:0.00816)
x#17#22                                             1 	(obj:0.02788)
x#18#26                                             1 	(obj:0.02465)
x#19#23                                             1 	(obj:0.0374)
x#20#23                                             1 	(obj:0.00884)
x#21#26                                             1 	(obj:0.02006)
x#22#30                                             1 	(obj:0.02754)
x#23#26                                             1 	(obj:0.02176)
x#24#11                                             1 	(obj:0.01173)
x#25#13                                             1 	(obj:0.03298)
x#26#23                                             1 	(obj:0.01921)
x#27#11                                             1 	(obj:0.02669)
x#28#18                                             1 	(obj:0.01581)
x#29#30                                             1 	(obj:0.1088)
x#30#22                                             1 	(obj:0.01411)
x#31#23                                             1 	(obj:0.00561)
x#32#4                                              1 	(obj:0.03944)
x#33#11                                             1 	(obj:0.01054)
x#34#30                                             1 	(obj:0.01938)
x#35#30                                             1 	(obj:0.01819)
x#36#4                                              1 	(obj:0.0255)
x#37#4                                              1 	(obj:0.02363)
x#38#4                                              1 	(obj:0.05865)
x#39#13                                             1 	(obj:0.04624)
x#40#30                                             1 	(obj:0.01768)
x#41#30                                             1 	(obj:0.02703)
x#42#11                                             1 	(obj:0.03026)
x#43#26                                             1 	(obj:0.01649)
x#44#13                                             1 	(obj:0.01904)
x#45#13                                             1 	(obj:0.05066)
x#46#26                                             1 	(obj:0.07973)
x#47#22                                             1 	(obj:0.01853)
x#48#18                                             1 	(obj:0.15453)
x#49#30                                             1 	(obj:0.01615)
x#50#23                                             1 	(obj:0.01938)
x#51#18                                             1 	(obj:0.01377)
x#52#11                                             1 	(obj:0.03196)
x#53#13                                             1 	(obj:0.04165)
x#54#23                                             1 	(obj:0.02499)
x#55#4                                              1 	(obj:0.03349)
x#56#13                                             1 	(obj:0.02669)
x#57#18                                             1 	(obj:0.02788)
x#58#11                                             1 	(obj:0.02159)
x#59#22                                             1 	(obj:0.02482)
x#60#11                                             1 	(obj:0.02363)
x#61#11                                             1 	(obj:0.0204)
x#62#13                                             1 	(obj:0.09605)
x#63#4                                              1 	(obj:0.03094)
x#64#22                                             1 	(obj:0.0153)
x#65#26                                             1 	(obj:0.0187)
x#66#26                                             1 	(obj:0.01564)
x#67#23                                             1 	(obj:0.05644)
x#68#18                                             1 	(obj:0.0527)
x#69#23                                             1 	(obj:0.03689)
x#70#26                                             1 	(obj:0.01326)
x#71#13                                             1 	(obj:0.05644)
x#72#30                                             1 	(obj:0.00561)
x#73#23                                             1 	(obj:0.01088)
x#74#4                                              1 	(obj:0.01105)
x#75#22                                             1 	(obj:0.03094)
x#76#22                                             1 	(obj:0.02125)
x#77#30                                             1 	(obj:0.03128)
x#78#23                                             1 	(obj:0.03604)
x#79#26                                             1 	(obj:0.03094)
x#80#22                                             1 	(obj:0.03247)
x#81#30                                             1 	(obj:0.03927)
x#82#18                                             1 	(obj:0.05406)
x#83#18                                             1 	(obj:0.02244)
x#84#4                                              1 	(obj:0.02652)
x#85#11                                             1 	(obj:0.00952)
x#86#22                                             1 	(obj:0.02448)
x#87#26                                             1 	(obj:0.01581)
x#88#18                                             1 	(obj:0.01258)
x#89#4                                              1 	(obj:0.02992)
x#90#13                                             1 	(obj:0.02499)
